100
1000
395
394
393
393
390
388
387
387
386
385
384
382
381
380
377
376
375
373
370
369
367
367
367
363
362
361
360
358
358
357
356
356
354
354
354
354
351
350
349
349
348
348
346
345
345
337
335
335
334
333
332
329
329
328
328
325
325
322
322
321
321
320
320
317
316
312
309
308
308
307
306
305
305
303
303
303
303
301
301
300
297
294
294
287
285
284
282
281
281
280
278
277
276
275
274
273
273
269
268
267
